(set-logic QF_S)
(declare-fun var_0xINPUT_130759 () String)
(assert (and (not (= var_0xINPUT_130759 "AA1ND6MEXd")) (= (len var_0xINPUT_130759) 0) (not (= var_0xINPUT_130759 "Example:")) (not (= var_0xINPUT_130759 "AA1ND6MEXd"))))
(check-sat var_0xINPUT_130759)